(set-logic BV)

(synth-fun deobfucated ( (a (BitVec 64))  (d (BitVec 64))  ) (BitVec 64)
	(
		(Start (BitVec 64)
			(
				(bvnot Start)
				(bvxor Start Start)
				(bvand Start Start)
				(bvor Start Start)
				(bvneg Start)
				(bvadd Start Start)
				(bvmul Start Start)
				(bvsub Start Start)
				a d
			)
		)
	)
)

(constraint (= (deobfucated #x000000002095a0b7 #x0000000036934596) #xffffffffdfffffff))
(constraint (= (deobfucated #x000000001d5ec780 #x000000002b676bb6) #xfffffffffeb9bc7f))
(constraint (= (deobfucated #x000000002311df7a #x000000001709c5ad) #xfffffffffffffef7))
(constraint (= (deobfucated #x000000000010ed37 #x0000000000054726) #xfffffffffffffbff))
(constraint (= (deobfucated #x0000000021b815a9 #x0000000005392c8e) #xffffffffffc7fff7))
(constraint (= (deobfucated #x000000002c9bbe5a #x0000000038a46d5b) #xffffffffdf7fffa5))
(constraint (= (deobfucated #x00000000336178e2 #x0000000004315cbf) #xffffffffffdfe7dd))
(constraint (= (deobfucated #x0000000007365e2b #x0000000020a5def8) #xffffffffffffa1df))
(constraint (= (deobfucated #x000000002b01a1a7 #x00000000275c7051) #xfffffffffcffdffe))
(constraint (= (deobfucated #x00000000075043aa #x00000000242fd3fd) #xffffffffffffbc57))
(constraint (= (deobfucated #x00000000173f216c #x000000000f2c9129) #xffffffffffffffff))
(constraint (= (deobfucated #x000000002a6f8197 #x000000003a2d1325) #xffffffffdffffffe))
(constraint (= (deobfucated #x000000002a11830d #x000000002799bf19) #xfffffffffdee7cfe))
(constraint (= (deobfucated #x0000000018cd6fa0 #x000000002a6626ef) #xfffffffff7bbff5f))
(constraint (= (deobfucated #x000000001822f431 #x0000000020a37b05) #xffffffffffdd8ffe))
(constraint (= (deobfucated #x00000000221776ed #x000000000e92889a) #xfffffffffdffffff))
(constraint (= (deobfucated #x00000000170c65b5 #x0000000003c3a679) #xfffffffffcffdbce))
(constraint (= (deobfucated #x00000000086e29cb #x0000000023fb4b60) #xffffffffff9df7bf))
(constraint (= (deobfucated #x000000001be506c5 #x000000001bd0dbc9) #xfffffffffffffd3e))
(constraint (= (deobfucated #x000000003969a38a #x000000000fce7b3b) #xfffffffff6f7dff5))
(check-synth)